% Auto-generated by scripts/generate_dzn.py
% problem_type   = regex
% instance       = regex_5
% source_json    = instances_json/2_high_blowup/regex_5.json
% blowup         = 25.375
% representation = DFA

mode = 0;

var_count = 26;
Q = 406;
S = 3;
q0 = 1;
F = {278, 279, 280, 281, 282, 283, 284, 285, 286, 287, 288, 289, 290, 291, 292, 293, 294, 295, 296, 297, 298, 299, 300, 301, 302, 303, 304, 305, 306, 307, 308, 309, 310, 311, 312, 313, 314, 315, 316, 317, 318, 319, 320, 321, 322, 323, 324, 325, 326, 327, 328, 329, 330, 331, 332, 333, 334, 335, 336, 337, 338, 339, 340, 341, 342, 343, 344, 345, 346, 347, 348, 349, 350, 351, 352, 353, 354, 355, 356, 357, 358, 359, 360, 361, 362, 363, 364, 365, 366, 367, 368, 369, 370, 371, 372, 373, 374, 375, 376, 377, 378, 379, 380, 381, 382, 383, 384, 385, 386, 387, 388, 389, 390, 391, 392, 393, 394, 395, 396, 397, 398, 399, 400, 401, 402, 403, 404, 405, 406};
d_dfa = array2d(1..406, 1..3, [
  1, 1, 2,
  3, 1, 2,
  1, 4, 2,
  6, 6, 5,
  9, 8, 7,
  8, 8, 7,
  12, 11, 10,
  11, 11, 10,
  11, 13, 10,
  16, 15, 14,
  15, 15, 14,
  15, 17, 14,
  19, 19, 18,
  22, 21, 20,
  21, 21, 20,
  21, 23, 20,
  25, 25, 24,
  28, 27, 26,
  27, 27, 26,
  31, 30, 29,
  30, 30, 29,
  30, 32, 29,
  34, 34, 33,
  37, 36, 35,
  36, 36, 35,
  40, 39, 38,
  39, 39, 38,
  39, 41, 38,
  44, 43, 42,
  43, 43, 42,
  43, 45, 42,
  47, 47, 46,
  50, 49, 48,
  49, 49, 48,
  53, 52, 51,
  52, 52, 51,
  52, 54, 51,
  57, 56, 55,
  56, 56, 55,
  56, 58, 55,
  60, 60, 59,
  63, 62, 61,
  62, 62, 61,
  62, 64, 61,
  66, 66, 65,
  69, 68, 67,
  68, 68, 67,
  72, 71, 70,
  71, 71, 70,
  71, 73, 70,
  76, 75, 74,
  75, 75, 74,
  75, 77, 74,
  79, 79, 78,
  82, 81, 80,
  81, 81, 80,
  81, 83, 80,
  85, 85, 84,
  88, 87, 86,
  87, 87, 86,
  91, 90, 89,
  90, 90, 89,
  90, 92, 89,
  94, 94, 93,
  97, 96, 95,
  96, 96, 95,
  100, 99, 98,
  99, 99, 98,
  99, 101, 98,
  104, 103, 102,
  103, 103, 102,
  103, 105, 102,
  107, 107, 106,
  110, 109, 108,
  109, 109, 108,
  109, 111, 108,
  113, 113, 112,
  116, 115, 114,
  115, 115, 114,
  119, 118, 117,
  118, 118, 117,
  118, 120, 117,
  122, 122, 121,
  125, 124, 123,
  124, 124, 123,
  128, 127, 126,
  127, 127, 126,
  127, 129, 126,
  132, 131, 130,
  131, 131, 130,
  131, 133, 130,
  135, 135, 134,
  138, 137, 136,
  137, 137, 136,
  141, 140, 139,
  140, 140, 139,
  140, 142, 139,
  145, 144, 143,
  144, 144, 143,
  144, 146, 143,
  148, 148, 147,
  151, 150, 149,
  150, 150, 149,
  150, 152, 149,
  154, 154, 153,
  157, 156, 155,
  156, 156, 155,
  160, 159, 158,
  159, 159, 158,
  159, 161, 158,
  163, 163, 162,
  166, 165, 164,
  165, 165, 164,
  169, 168, 167,
  168, 168, 167,
  168, 170, 167,
  173, 172, 171,
  172, 172, 171,
  172, 174, 171,
  176, 176, 175,
  179, 178, 177,
  178, 178, 177,
  182, 181, 180,
  181, 181, 180,
  181, 183, 180,
  186, 185, 184,
  185, 185, 184,
  185, 187, 184,
  189, 189, 188,
  192, 191, 190,
  191, 191, 190,
  191, 193, 190,
  195, 195, 194,
  198, 197, 196,
  197, 197, 196,
  201, 200, 199,
  200, 200, 199,
  200, 202, 199,
  205, 204, 203,
  204, 204, 203,
  204, 206, 203,
  208, 208, 207,
  211, 210, 209,
  210, 210, 209,
  210, 212, 209,
  214, 214, 213,
  217, 216, 215,
  216, 216, 215,
  220, 219, 218,
  219, 219, 218,
  219, 221, 218,
  223, 223, 222,
  226, 225, 224,
  225, 225, 224,
  229, 228, 227,
  228, 228, 227,
  228, 230, 227,
  233, 232, 231,
  232, 232, 231,
  232, 234, 231,
  236, 236, 235,
  239, 238, 237,
  238, 238, 237,
  242, 241, 240,
  241, 241, 240,
  241, 243, 240,
  246, 245, 244,
  245, 245, 244,
  245, 247, 244,
  249, 249, 248,
  252, 251, 250,
  251, 251, 250,
  251, 253, 250,
  255, 255, 254,
  258, 257, 256,
  257, 257, 256,
  261, 260, 259,
  260, 260, 259,
  260, 262, 259,
  265, 264, 263,
  264, 264, 263,
  264, 266, 263,
  268, 268, 267,
  271, 270, 269,
  270, 270, 269,
  270, 272, 269,
  274, 274, 273,
  277, 276, 275,
  276, 276, 275,
  280, 279, 278,
  279, 279, 278,
  279, 281, 278,
  283, 283, 282,
  286, 285, 284,
  285, 285, 284,
  289, 288, 287,
  288, 288, 287,
  288, 290, 287,
  293, 292, 291,
  292, 292, 291,
  292, 294, 291,
  296, 296, 295,
  299, 298, 297,
  298, 298, 297,
  298, 300, 297,
  302, 302, 301,
  305, 304, 303,
  304, 304, 303,
  308, 307, 306,
  307, 307, 306,
  307, 309, 306,
  311, 311, 310,
  314, 313, 312,
  313, 313, 312,
  317, 316, 315,
  316, 316, 315,
  316, 318, 315,
  321, 320, 319,
  320, 320, 319,
  320, 322, 319,
  324, 324, 323,
  327, 326, 325,
  326, 326, 325,
  330, 329, 328,
  329, 329, 328,
  329, 331, 328,
  334, 333, 332,
  333, 333, 332,
  333, 335, 332,
  337, 337, 336,
  340, 339, 338,
  339, 339, 338,
  339, 341, 338,
  343, 343, 342,
  346, 345, 344,
  345, 345, 344,
  349, 348, 347,
  348, 348, 347,
  348, 350, 347,
  353, 352, 351,
  352, 352, 351,
  352, 354, 351,
  356, 356, 355,
  359, 358, 357,
  358, 358, 357,
  358, 360, 357,
  362, 362, 361,
  365, 364, 363,
  364, 364, 363,
  368, 367, 366,
  367, 367, 366,
  367, 369, 366,
  371, 371, 370,
  374, 373, 372,
  373, 373, 372,
  377, 376, 375,
  376, 376, 375,
  376, 378, 375,
  381, 380, 379,
  380, 380, 379,
  380, 382, 379,
  384, 384, 383,
  387, 386, 385,
  386, 386, 385,
  386, 388, 385,
  390, 390, 389,
  393, 392, 391,
  392, 392, 391,
  396, 395, 394,
  395, 395, 394,
  395, 397, 394,
  399, 399, 398,
  402, 401, 400,
  401, 401, 400,
  405, 404, 403,
  404, 404, 403,
  404, 406, 403,
  3, 1, 2,
  1, 1, 2,
  1, 4, 2,
  6, 6, 5,
  9, 8, 7,
  8, 8, 7,
  12, 11, 10,
  11, 11, 10,
  11, 13, 10,
  16, 15, 14,
  15, 15, 14,
  15, 17, 14,
  19, 19, 18,
  22, 21, 20,
  21, 21, 20,
  21, 23, 20,
  25, 25, 24,
  28, 27, 26,
  27, 27, 26,
  31, 30, 29,
  30, 30, 29,
  30, 32, 29,
  34, 34, 33,
  37, 36, 35,
  36, 36, 35,
  40, 39, 38,
  39, 39, 38,
  39, 41, 38,
  44, 43, 42,
  43, 43, 42,
  43, 45, 42,
  47, 47, 46,
  50, 49, 48,
  49, 49, 48,
  53, 52, 51,
  52, 52, 51,
  52, 54, 51,
  57, 56, 55,
  56, 56, 55,
  56, 58, 55,
  60, 60, 59,
  63, 62, 61,
  62, 62, 61,
  62, 64, 61,
  66, 66, 65,
  69, 68, 67,
  68, 68, 67,
  72, 71, 70,
  71, 71, 70,
  71, 73, 70,
  76, 75, 74,
  75, 75, 74,
  75, 77, 74,
  79, 79, 78,
  82, 81, 80,
  81, 81, 80,
  81, 83, 80,
  85, 85, 84,
  88, 87, 86,
  87, 87, 86,
  91, 90, 89,
  90, 90, 89,
  90, 92, 89,
  94, 94, 93,
  97, 96, 95,
  96, 96, 95,
  100, 99, 98,
  99, 99, 98,
  99, 101, 98,
  104, 103, 102,
  103, 103, 102,
  103, 105, 102,
  107, 107, 106,
  110, 109, 108,
  109, 109, 108,
  109, 111, 108,
  113, 113, 112,
  116, 115, 114,
  115, 115, 114,
  119, 118, 117,
  118, 118, 117,
  118, 120, 117,
  122, 122, 121,
  125, 124, 123,
  124, 124, 123,
  128, 127, 126,
  127, 127, 126,
  127, 129, 126,
  132, 131, 130,
  131, 131, 130,
  131, 133, 130,
  135, 135, 134,
  138, 137, 136,
  137, 137, 136,
  141, 140, 139,
  140, 140, 139,
  140, 142, 139,
  145, 144, 143,
  144, 144, 143,
  144, 146, 143,
  148, 148, 147,
  151, 150, 149,
  150, 150, 149,
  150, 152, 149,
  154, 154, 153,
  157, 156, 155,
  156, 156, 155,
  160, 159, 158,
  159, 159, 158,
  159, 161, 158,
  163, 163, 162,
  166, 165, 164,
  165, 165, 164,
  169, 168, 167,
  168, 168, 167,
  168, 170, 167,
  173, 172, 171,
  172, 172, 171,
  172, 174, 171,
  176, 176, 175,
  179, 178, 177,
  178, 178, 177,
  182, 181, 180,
  181, 181, 180,
  181, 183, 180,
  186, 185, 184,
  185, 185, 184,
  185, 187, 184,
  189, 189, 188
]);
d_nfa = array2d(1..406, 1..3, [
  {}, {}, {},
  {}, {}, {},
  {}, {}, {},
  {}, {}, {},
  {}, {}, {},
  {}, {}, {},
  {}, {}, {},
  {}, {}, {},
  {}, {}, {},
  {}, {}, {},
  {}, {}, {},
  {}, {}, {},
  {}, {}, {},
  {}, {}, {},
  {}, {}, {},
  {}, {}, {},
  {}, {}, {},
  {}, {}, {},
  {}, {}, {},
  {}, {}, {},
  {}, {}, {},
  {}, {}, {},
  {}, {}, {},
  {}, {}, {},
  {}, {}, {},
  {}, {}, {},
  {}, {}, {},
  {}, {}, {},
  {}, {}, {},
  {}, {}, {},
  {}, {}, {},
  {}, {}, {},
  {}, {}, {},
  {}, {}, {},
  {}, {}, {},
  {}, {}, {},
  {}, {}, {},
  {}, {}, {},
  {}, {}, {},
  {}, {}, {},
  {}, {}, {},
  {}, {}, {},
  {}, {}, {},
  {}, {}, {},
  {}, {}, {},
  {}, {}, {},
  {}, {}, {},
  {}, {}, {},
  {}, {}, {},
  {}, {}, {},
  {}, {}, {},
  {}, {}, {},
  {}, {}, {},
  {}, {}, {},
  {}, {}, {},
  {}, {}, {},
  {}, {}, {},
  {}, {}, {},
  {}, {}, {},
  {}, {}, {},
  {}, {}, {},
  {}, {}, {},
  {}, {}, {},
  {}, {}, {},
  {}, {}, {},
  {}, {}, {},
  {}, {}, {},
  {}, {}, {},
  {}, {}, {},
  {}, {}, {},
  {}, {}, {},
  {}, {}, {},
  {}, {}, {},
  {}, {}, {},
  {}, {}, {},
  {}, {}, {},
  {}, {}, {},
  {}, {}, {},
  {}, {}, {},
  {}, {}, {},
  {}, {}, {},
  {}, {}, {},
  {}, {}, {},
  {}, {}, {},
  {}, {}, {},
  {}, {}, {},
  {}, {}, {},
  {}, {}, {},
  {}, {}, {},
  {}, {}, {},
  {}, {}, {},
  {}, {}, {},
  {}, {}, {},
  {}, {}, {},
  {}, {}, {},
  {}, {}, {},
  {}, {}, {},
  {}, {}, {},
  {}, {}, {},
  {}, {}, {},
  {}, {}, {},
  {}, {}, {},
  {}, {}, {},
  {}, {}, {},
  {}, {}, {},
  {}, {}, {},
  {}, {}, {},
  {}, {}, {},
  {}, {}, {},
  {}, {}, {},
  {}, {}, {},
  {}, {}, {},
  {}, {}, {},
  {}, {}, {},
  {}, {}, {},
  {}, {}, {},
  {}, {}, {},
  {}, {}, {},
  {}, {}, {},
  {}, {}, {},
  {}, {}, {},
  {}, {}, {},
  {}, {}, {},
  {}, {}, {},
  {}, {}, {},
  {}, {}, {},
  {}, {}, {},
  {}, {}, {},
  {}, {}, {},
  {}, {}, {},
  {}, {}, {},
  {}, {}, {},
  {}, {}, {},
  {}, {}, {},
  {}, {}, {},
  {}, {}, {},
  {}, {}, {},
  {}, {}, {},
  {}, {}, {},
  {}, {}, {},
  {}, {}, {},
  {}, {}, {},
  {}, {}, {},
  {}, {}, {},
  {}, {}, {},
  {}, {}, {},
  {}, {}, {},
  {}, {}, {},
  {}, {}, {},
  {}, {}, {},
  {}, {}, {},
  {}, {}, {},
  {}, {}, {},
  {}, {}, {},
  {}, {}, {},
  {}, {}, {},
  {}, {}, {},
  {}, {}, {},
  {}, {}, {},
  {}, {}, {},
  {}, {}, {},
  {}, {}, {},
  {}, {}, {},
  {}, {}, {},
  {}, {}, {},
  {}, {}, {},
  {}, {}, {},
  {}, {}, {},
  {}, {}, {},
  {}, {}, {},
  {}, {}, {},
  {}, {}, {},
  {}, {}, {},
  {}, {}, {},
  {}, {}, {},
  {}, {}, {},
  {}, {}, {},
  {}, {}, {},
  {}, {}, {},
  {}, {}, {},
  {}, {}, {},
  {}, {}, {},
  {}, {}, {},
  {}, {}, {},
  {}, {}, {},
  {}, {}, {},
  {}, {}, {},
  {}, {}, {},
  {}, {}, {},
  {}, {}, {},
  {}, {}, {},
  {}, {}, {},
  {}, {}, {},
  {}, {}, {},
  {}, {}, {},
  {}, {}, {},
  {}, {}, {},
  {}, {}, {},
  {}, {}, {},
  {}, {}, {},
  {}, {}, {},
  {}, {}, {},
  {}, {}, {},
  {}, {}, {},
  {}, {}, {},
  {}, {}, {},
  {}, {}, {},
  {}, {}, {},
  {}, {}, {},
  {}, {}, {},
  {}, {}, {},
  {}, {}, {},
  {}, {}, {},
  {}, {}, {},
  {}, {}, {},
  {}, {}, {},
  {}, {}, {},
  {}, {}, {},
  {}, {}, {},
  {}, {}, {},
  {}, {}, {},
  {}, {}, {},
  {}, {}, {},
  {}, {}, {},
  {}, {}, {},
  {}, {}, {},
  {}, {}, {},
  {}, {}, {},
  {}, {}, {},
  {}, {}, {},
  {}, {}, {},
  {}, {}, {},
  {}, {}, {},
  {}, {}, {},
  {}, {}, {},
  {}, {}, {},
  {}, {}, {},
  {}, {}, {},
  {}, {}, {},
  {}, {}, {},
  {}, {}, {},
  {}, {}, {},
  {}, {}, {},
  {}, {}, {},
  {}, {}, {},
  {}, {}, {},
  {}, {}, {},
  {}, {}, {},
  {}, {}, {},
  {}, {}, {},
  {}, {}, {},
  {}, {}, {},
  {}, {}, {},
  {}, {}, {},
  {}, {}, {},
  {}, {}, {},
  {}, {}, {},
  {}, {}, {},
  {}, {}, {},
  {}, {}, {},
  {}, {}, {},
  {}, {}, {},
  {}, {}, {},
  {}, {}, {},
  {}, {}, {},
  {}, {}, {},
  {}, {}, {},
  {}, {}, {},
  {}, {}, {},
  {}, {}, {},
  {}, {}, {},
  {}, {}, {},
  {}, {}, {},
  {}, {}, {},
  {}, {}, {},
  {}, {}, {},
  {}, {}, {},
  {}, {}, {},
  {}, {}, {},
  {}, {}, {},
  {}, {}, {},
  {}, {}, {},
  {}, {}, {},
  {}, {}, {},
  {}, {}, {},
  {}, {}, {},
  {}, {}, {},
  {}, {}, {},
  {}, {}, {},
  {}, {}, {},
  {}, {}, {},
  {}, {}, {},
  {}, {}, {},
  {}, {}, {},
  {}, {}, {},
  {}, {}, {},
  {}, {}, {},
  {}, {}, {},
  {}, {}, {},
  {}, {}, {},
  {}, {}, {},
  {}, {}, {},
  {}, {}, {},
  {}, {}, {},
  {}, {}, {},
  {}, {}, {},
  {}, {}, {},
  {}, {}, {},
  {}, {}, {},
  {}, {}, {},
  {}, {}, {},
  {}, {}, {},
  {}, {}, {},
  {}, {}, {},
  {}, {}, {},
  {}, {}, {},
  {}, {}, {},
  {}, {}, {},
  {}, {}, {},
  {}, {}, {},
  {}, {}, {},
  {}, {}, {},
  {}, {}, {},
  {}, {}, {},
  {}, {}, {},
  {}, {}, {},
  {}, {}, {},
  {}, {}, {},
  {}, {}, {},
  {}, {}, {},
  {}, {}, {},
  {}, {}, {},
  {}, {}, {},
  {}, {}, {},
  {}, {}, {},
  {}, {}, {},
  {}, {}, {},
  {}, {}, {},
  {}, {}, {},
  {}, {}, {},
  {}, {}, {},
  {}, {}, {},
  {}, {}, {},
  {}, {}, {},
  {}, {}, {},
  {}, {}, {},
  {}, {}, {},
  {}, {}, {},
  {}, {}, {},
  {}, {}, {},
  {}, {}, {},
  {}, {}, {},
  {}, {}, {},
  {}, {}, {},
  {}, {}, {},
  {}, {}, {},
  {}, {}, {},
  {}, {}, {},
  {}, {}, {},
  {}, {}, {},
  {}, {}, {},
  {}, {}, {},
  {}, {}, {},
  {}, {}, {},
  {}, {}, {},
  {}, {}, {},
  {}, {}, {},
  {}, {}, {},
  {}, {}, {},
  {}, {}, {},
  {}, {}, {},
  {}, {}, {},
  {}, {}, {},
  {}, {}, {},
  {}, {}, {},
  {}, {}, {},
  {}, {}, {},
  {}, {}, {},
  {}, {}, {},
  {}, {}, {},
  {}, {}, {},
  {}, {}, {},
  {}, {}, {},
  {}, {}, {},
  {}, {}, {},
  {}, {}, {},
  {}, {}, {},
  {}, {}, {},
  {}, {}, {},
  {}, {}, {},
  {}, {}, {},
  {}, {}, {},
  {}, {}, {},
  {}, {}, {},
  {}, {}, {},
  {}, {}, {},
  {}, {}, {},
  {}, {}, {},
  {}, {}, {},
  {}, {}, {},
  {}, {}, {},
  {}, {}, {},
  {}, {}, {},
  {}, {}, {},
  {}, {}, {},
  {}, {}, {}
]);
